(declare-fun temp126_1 () (_ BitVec 64))
(declare-fun temp126_2 () (_ BitVec 64))
(declare-fun temp126_3 () (_ BitVec 64))
(declare-fun ARGNAME_w_hh_NAMEEND_DIMSIZE
             ()
             (Array (_ BitVec 64) (_ BitVec 64)))
(declare-fun temp126_4 () (_ BitVec 64))
(declare-fun temp126_5 () (_ BitVec 64))
(declare-fun temp126_6 () (_ BitVec 64))
(declare-fun temp126_7 () (_ BitVec 64))
(declare-fun temp126_8 () (_ BitVec 64))
(declare-fun temp126_9 () (_ BitVec 64))
(declare-fun temp126_10 () (_ BitVec 64))
(declare-fun temp126_11 () (_ BitVec 64))
(declare-fun temp126_12 () (_ BitVec 64))
(declare-fun temp126_13 () (_ BitVec 64))
(declare-fun temp126_14 () (_ BitVec 64))
(declare-fun temp126_15 () (_ BitVec 64))
(declare-fun temp126_16 () (_ BitVec 64))
(declare-fun temp126_17 () (_ BitVec 64))
(declare-fun temp126_18 () (_ BitVec 64))
(declare-fun temp126_19 () (_ BitVec 64))
(declare-fun temp126_20 () (_ BitVec 64))
(declare-fun temp126_21 () (_ BitVec 64))
(declare-fun temp126_22 () (_ BitVec 64))
(declare-fun temp126_23 () (_ BitVec 64))
(declare-fun temp126_24 () (_ BitVec 64))
(declare-fun ARGNAME_input_NAMEEND_DIMSIZE
             ()
             (Array (_ BitVec 64) (_ BitVec 64)))
(declare-fun temp126_25 () (_ BitVec 64))
(declare-fun temp126_26 () (_ BitVec 64))
(declare-fun temp126_27 () (_ BitVec 64))
(declare-fun temp126_28 () (_ BitVec 64))
(declare-fun temp126_29 () (_ BitVec 64))
(declare-fun temp126_30 () (_ BitVec 64))
(declare-fun temp126_31 () (_ BitVec 64))
(declare-fun temp126_32 () (_ BitVec 64))
(declare-fun temp126_33 () (_ BitVec 64))
(declare-fun temp126_34 () (_ BitVec 64))
(declare-fun temp126_35 () (_ BitVec 64))
(declare-fun temp126_36 () (_ BitVec 64))
(declare-fun temp126_37 () (_ BitVec 64))
(declare-fun temp126_38 () (_ BitVec 64))
(declare-fun temp126_39 () (_ BitVec 64))
(declare-fun temp126_40 () (_ BitVec 64))
(declare-fun temp126_41 () (_ BitVec 64))
(declare-fun temp126_42 () (_ BitVec 64))
(declare-fun temp126_43 () (_ BitVec 64))
(declare-fun temp126_44 () (_ BitVec 64))
(declare-fun var404256 () (_ BitVec 64))
(declare-fun k!0 () (_ BitVec 64))
(declare-fun k!1 () (_ BitVec 64))
(declare-fun k!2 () Bool)
(declare-fun ARGNAME_w_hh_NAMEEND_DIM () (_ BitVec 64))
(declare-fun ARGNAME_input_NAMEEND_DIM () (_ BitVec 64))
(declare-fun temp126_45 () (_ BitVec 64))
(declare-fun temp126_46 () (_ BitVec 64))
(declare-fun ARGNAME_b_ih_NAMEEND_DIMSIZE
             ()
             (Array (_ BitVec 64) (_ BitVec 64)))
(declare-fun temp126_47 () (_ BitVec 64))
(declare-fun temp126_48 () (_ BitVec 64))
(declare-fun temp126_49 () (_ BitVec 64))
(declare-fun temp126_50 () (_ BitVec 64))
(declare-fun temp126_51 () (_ BitVec 64))
(declare-fun temp126_52 () (_ BitVec 64))
(declare-fun temp126_53 () (_ BitVec 64))
(declare-fun temp126_54 () (_ BitVec 64))
(declare-fun temp126_55 () (_ BitVec 64))
(declare-fun temp126_56 () (_ BitVec 64))
(declare-fun temp126_57 () (_ BitVec 64))
(declare-fun temp126_58 () (_ BitVec 64))
(declare-fun temp126_59 () (_ BitVec 64))
(declare-fun temp126_60 () (_ BitVec 64))
(declare-fun temp126_61 () (_ BitVec 64))
(declare-fun temp126_62 () (_ BitVec 64))
(declare-fun temp126_63 () (_ BitVec 64))
(declare-fun temp126_64 () (_ BitVec 64))
(declare-fun temp126_65 () (_ BitVec 64))
(declare-fun ARGNAME_b_ih_NAMEEND_DIM () (_ BitVec 64))
(declare-fun temp126_66 () (_ BitVec 64))
(declare-fun var65706 () (_ BitVec 64))
(declare-fun temp126_67 () (_ BitVec 64))
(declare-fun temp126_68 () (_ BitVec 64))
(declare-fun temp126_69 () (_ BitVec 64))
(declare-fun temp126_70 () (_ BitVec 64))
(declare-fun temp126_71 () (_ BitVec 64))
(declare-fun temp126_72 () (_ BitVec 64))
(declare-fun var68976 () (_ BitVec 64))
(declare-fun temp126_73 () (_ BitVec 64))
(declare-fun temp126_74 () (_ BitVec 64))
(declare-fun temp126_75 () (_ BitVec 64))
(declare-fun temp126_76 () (_ BitVec 64))
(declare-fun temp126_77 () (_ BitVec 64))
(declare-fun temp126_78 () (_ BitVec 64))
(declare-fun temp126_79 () (_ BitVec 64))
(declare-fun temp126_80 () (_ BitVec 64))
(declare-fun var2041840 () (_ BitVec 64))
(declare-fun temp126_81 () (_ BitVec 64))
(assert (= temp126_1 #x0000000000000000))
(assert (= temp126_2 temp126_1))
(assert (= temp126_3 (select ARGNAME_w_hh_NAMEEND_DIMSIZE temp126_2)))
(assert (= temp126_4 #x0000000000000001))
(assert (= temp126_5 temp126_4))
(assert (= temp126_6 (select ARGNAME_w_hh_NAMEEND_DIMSIZE temp126_5)))
(assert (= temp126_7 #x0000000000000002))
(assert (= temp126_8 temp126_7))
(assert (= temp126_9 (select ARGNAME_w_hh_NAMEEND_DIMSIZE temp126_8)))
(assert (= temp126_10 #x0000000000000003))
(assert (= temp126_11 temp126_10))
(assert (= temp126_12 (select ARGNAME_w_hh_NAMEEND_DIMSIZE temp126_11)))
(assert (= temp126_13 #x0000000000000004))
(assert (= temp126_14 temp126_13))
(assert (= temp126_15 (select ARGNAME_w_hh_NAMEEND_DIMSIZE temp126_14)))
(assert (= temp126_16 #x0000000000000005))
(assert (= temp126_17 temp126_16))
(assert (= temp126_18 (select ARGNAME_w_hh_NAMEEND_DIMSIZE temp126_17)))
(assert (= temp126_19 #x0000000000000001))
(assert (= temp126_20 temp126_19))
(assert (= temp126_21 (select ARGNAME_w_hh_NAMEEND_DIMSIZE temp126_20)))
(assert (bvsgt ARGNAME_w_hh_NAMEEND_DIM temp126_19))
(assert (bvsge temp126_19 (bvneg ARGNAME_w_hh_NAMEEND_DIM)))
(assert (= temp126_22 #x0000000000000000))
(assert (= temp126_23 temp126_22))
(assert (= temp126_24 (select ARGNAME_input_NAMEEND_DIMSIZE temp126_23)))
(assert (= temp126_25 #x0000000000000001))
(assert (= temp126_26 temp126_25))
(assert (= temp126_27 (select ARGNAME_input_NAMEEND_DIMSIZE temp126_26)))
(assert (= temp126_28 #x0000000000000002))
(assert (= temp126_29 temp126_28))
(assert (= temp126_30 (select ARGNAME_input_NAMEEND_DIMSIZE temp126_29)))
(assert (= temp126_31 #x0000000000000003))
(assert (= temp126_32 temp126_31))
(assert (= temp126_33 (select ARGNAME_input_NAMEEND_DIMSIZE temp126_32)))
(assert (= temp126_34 #x0000000000000004))
(assert (= temp126_35 temp126_34))
(assert (= temp126_36 (select ARGNAME_input_NAMEEND_DIMSIZE temp126_35)))
(assert (= temp126_37 #x0000000000000005))
(assert (= temp126_38 temp126_37))
(assert (= temp126_39 (select ARGNAME_input_NAMEEND_DIMSIZE temp126_38)))
(assert (= temp126_40 #x0000000000000001))
(assert (= temp126_41 temp126_40))
(assert (= temp126_42 (select ARGNAME_input_NAMEEND_DIMSIZE temp126_41)))
(assert (bvsgt ARGNAME_input_NAMEEND_DIM temp126_40))
(assert (bvsge temp126_40 (bvneg ARGNAME_input_NAMEEND_DIM)))
(assert (= temp126_43 temp126_21))
(assert (= var404256
   (ite (= temp126_42 temp126_43) #x0000000000000001 #x0000000000000000)))
(assert (= temp126_44 #x0000000000000001))
(assert (= var404256 temp126_44))
(assert (= temp126_45 #x0000000000000000))
(assert (= temp126_46 temp126_45))
(assert (= temp126_47 (select ARGNAME_b_ih_NAMEEND_DIMSIZE temp126_46)))
(assert (= temp126_48 #x0000000000000001))
(assert (= temp126_49 temp126_48))
(assert (= temp126_50 (select ARGNAME_b_ih_NAMEEND_DIMSIZE temp126_49)))
(assert (= temp126_51 #x0000000000000002))
(assert (= temp126_52 temp126_51))
(assert (= temp126_53 (select ARGNAME_b_ih_NAMEEND_DIMSIZE temp126_52)))
(assert (= temp126_54 #x0000000000000003))
(assert (= temp126_55 temp126_54))
(assert (= temp126_56 (select ARGNAME_b_ih_NAMEEND_DIMSIZE temp126_55)))
(assert (= temp126_57 #x0000000000000004))
(assert (= temp126_58 temp126_57))
(assert (= temp126_59 (select ARGNAME_b_ih_NAMEEND_DIMSIZE temp126_58)))
(assert (= temp126_60 #x0000000000000005))
(assert (= temp126_61 temp126_60))
(assert (= temp126_62 (select ARGNAME_b_ih_NAMEEND_DIMSIZE temp126_61)))
(assert (= temp126_63 #x0000000000000001))
(assert (= temp126_64 temp126_63))
(assert (= temp126_65 (select ARGNAME_b_ih_NAMEEND_DIMSIZE temp126_64)))
(assert (bvsgt ARGNAME_b_ih_NAMEEND_DIM temp126_63))
(assert (bvsge temp126_63 (bvneg ARGNAME_b_ih_NAMEEND_DIM)))
(assert (= temp126_66 #x0000000000000000))
(assert (= var65706 temp126_66))
(assert (= temp126_67 temp126_65))
(assert (= temp126_68 #x0000000000000000))
(assert (= temp126_69 temp126_68))
(assert (= temp126_70 (select ARGNAME_input_NAMEEND_DIMSIZE temp126_69)))
(assert (bvsgt ARGNAME_input_NAMEEND_DIM temp126_68))
(assert (bvsge temp126_68 (bvneg ARGNAME_input_NAMEEND_DIM)))
(assert (= temp126_71 temp126_67))
(assert (= temp126_72 #x0000000000000001))
(assert (= var68976 temp126_72))
(assert (= temp126_73 temp126_65))
(assert (= temp126_74 #x0000000000000000))
(assert (= temp126_75 temp126_74))
(assert (= temp126_76 (select ARGNAME_input_NAMEEND_DIMSIZE temp126_75)))
(assert (bvsgt ARGNAME_input_NAMEEND_DIM temp126_74))
(assert (bvsge temp126_74 (bvneg ARGNAME_input_NAMEEND_DIM)))
(assert (= temp126_77 temp126_73))
(assert (= temp126_78 #x0000000000000000))
(assert (= var65706 temp126_78))
(assert (= temp126_79 #x0000000000000001))
(assert (= var68976 temp126_79))
(assert (= temp126_80 #x0000000000000000))
(assert (= var2041840 temp126_80))
(assert (= temp126_81 #x0000000000000000))
(assert (= var2041840 temp126_81))
(model-add temp126_1 () (_ BitVec 64) #x0000000000000000)
(model-add temp126_2 () (_ BitVec 64) #x0000000000000000)
(model-add temp126_3
           ()
           (_ BitVec 64)
           (select ARGNAME_w_hh_NAMEEND_DIMSIZE #x0000000000000000))
(model-add temp126_4 () (_ BitVec 64) #x0000000000000001)
(model-add temp126_5 () (_ BitVec 64) #x0000000000000001)
(model-add temp126_6
           ()
           (_ BitVec 64)
           (select ARGNAME_w_hh_NAMEEND_DIMSIZE #x0000000000000001))
(model-add temp126_7 () (_ BitVec 64) #x0000000000000002)
(model-add temp126_8 () (_ BitVec 64) #x0000000000000002)
(model-add temp126_9
           ()
           (_ BitVec 64)
           (select ARGNAME_w_hh_NAMEEND_DIMSIZE #x0000000000000002))
(model-add temp126_10 () (_ BitVec 64) #x0000000000000003)
(model-add temp126_11 () (_ BitVec 64) #x0000000000000003)
(model-add temp126_12
           ()
           (_ BitVec 64)
           (select ARGNAME_w_hh_NAMEEND_DIMSIZE #x0000000000000003))
(model-add temp126_13 () (_ BitVec 64) #x0000000000000004)
(model-add temp126_14 () (_ BitVec 64) #x0000000000000004)
(model-add temp126_15
           ()
           (_ BitVec 64)
           (select ARGNAME_w_hh_NAMEEND_DIMSIZE #x0000000000000004))
(model-add temp126_16 () (_ BitVec 64) #x0000000000000005)
(model-add temp126_17 () (_ BitVec 64) #x0000000000000005)
(model-add temp126_18
           ()
           (_ BitVec 64)
           (select ARGNAME_w_hh_NAMEEND_DIMSIZE #x0000000000000005))
(model-add temp126_19 () (_ BitVec 64) #x0000000000000001)
(model-add temp126_20 () (_ BitVec 64) #x0000000000000001)
(model-add temp126_21
           ()
           (_ BitVec 64)
           (select ARGNAME_w_hh_NAMEEND_DIMSIZE #x0000000000000001))
(model-add temp126_22 () (_ BitVec 64) #x0000000000000000)
(model-add temp126_23 () (_ BitVec 64) #x0000000000000000)
(model-add temp126_24
           ()
           (_ BitVec 64)
           (select ARGNAME_input_NAMEEND_DIMSIZE #x0000000000000000))
(model-add temp126_25 () (_ BitVec 64) #x0000000000000001)
(model-add temp126_26 () (_ BitVec 64) #x0000000000000001)
(model-add temp126_27
           ()
           (_ BitVec 64)
           (select ARGNAME_input_NAMEEND_DIMSIZE #x0000000000000001))
(model-add temp126_28 () (_ BitVec 64) #x0000000000000002)
(model-add temp126_29 () (_ BitVec 64) #x0000000000000002)
(model-add temp126_30
           ()
           (_ BitVec 64)
           (select ARGNAME_input_NAMEEND_DIMSIZE #x0000000000000002))
(model-add temp126_31 () (_ BitVec 64) #x0000000000000003)
(model-add temp126_32 () (_ BitVec 64) #x0000000000000003)
(model-add temp126_33
           ()
           (_ BitVec 64)
           (select ARGNAME_input_NAMEEND_DIMSIZE #x0000000000000003))
(model-add temp126_34 () (_ BitVec 64) #x0000000000000004)
(model-add temp126_35 () (_ BitVec 64) #x0000000000000004)
(model-add temp126_36
           ()
           (_ BitVec 64)
           (select ARGNAME_input_NAMEEND_DIMSIZE #x0000000000000004))
(model-add temp126_37 () (_ BitVec 64) #x0000000000000005)
(model-add temp126_38 () (_ BitVec 64) #x0000000000000005)
(model-add temp126_39
           ()
           (_ BitVec 64)
           (select ARGNAME_input_NAMEEND_DIMSIZE #x0000000000000005))
(model-add temp126_40 () (_ BitVec 64) #x0000000000000001)
(model-add temp126_41 () (_ BitVec 64) #x0000000000000001)
(model-add temp126_42
           ()
           (_ BitVec 64)
           (select ARGNAME_input_NAMEEND_DIMSIZE #x0000000000000001))
(model-add temp126_43
           ()
           (_ BitVec 64)
           (select ARGNAME_w_hh_NAMEEND_DIMSIZE #x0000000000000001))
(model-add temp126_44 () (_ BitVec 64) #x0000000000000001)
(model-add var404256 () (_ BitVec 64) #x0000000000000001)
(model-del k!0)
(model-add ARGNAME_input_NAMEEND_DIMSIZE
           ()
           (Array (_ BitVec 64) (_ BitVec 64))
           ((as const (Array (_ BitVec 64) (_ BitVec 64))) k!0))
(model-del k!1)
(model-add ARGNAME_w_hh_NAMEEND_DIMSIZE
           ()
           (Array (_ BitVec 64) (_ BitVec 64))
           ((as const (Array (_ BitVec 64) (_ BitVec 64))) k!1))
(model-del k!2)
(model-add k!0 () (_ BitVec 64) (ite k!2 k!1 (bvnot k!1)))





